
set I := 1 2 3 4 5;
set J := 1 2 3 4 5;

param p:=
1 1 0   1 2 5.03   1 3 8.63   1 4 12.99   1 5 13.83
2 1 5.03   2 2 0   2 3 5.42   2 4 8.26   2 5 9.10
3 1 8.63   3 2 5.42   3 3 0   3 4 5.71   3 5 6.45
4 1 12.99   4 2 8.26   4 3 5.71   4 4 0   4 5 0.84
5 1 13.83   5 2 9.10   5 3 6.45   5 4 0.84   5 5 0;
